data/instances/vrp_files/train_27.vrp
NAME : 27
COMMENT : Generated instance No. 27
TYPE : CVRP
DIMENSION : 21
EDGE_WEIGHT_TYPE : EUC_2D
CAPACITY : 30
NODE_COORD_SECTION
 1 519 67
 2 423 667
 3 95 623
 4 451 586
 5 168 736
 6 862 216
 7 95 23
 8 641 607
 9 546 231
 10 390 594
 11 496 987
 12 136 695
 13 404 428
 14 717 692
 15 991 128
 16 104 724
 17 578 274
 18 79 85
 19 894 191
 20 323 226
 21 354 69
DEMAND_SECTION
1 0
2 5
3 5
4 8
5 6
6 8
7 2
8 3
9 6
10 10
11 3
12 6
13 6
14 2
15 7
16 2
17 6
18 1
19 3
20 2
21 7
DEPOT_SECTION
 1
 -1
EOF